
Gurobi 5.6.3 (linux64) logging started Tue Jan 27 10:49:41 2015


Gurobi 5.6.3 (linux64) logging started Tue Jan 27 13:04:24 2015


Gurobi 5.6.3 (linux64) logging started Tue Jan 27 13:05:03 2015


Gurobi 5.6.3 (linux64) logging started Tue Jan 27 14:40:34 2015


Gurobi 5.6.3 (linux64) logging started Tue Jan 27 14:43:49 2015


Gurobi 5.6.3 (linux64) logging started Tue Jan 27 14:46:11 2015


Gurobi 5.6.3 (linux64) logging started Tue Jan 27 14:48:18 2015


Gurobi 5.6.3 (linux64) logging started Tue Jan 27 14:50:30 2015


Gurobi 5.6.3 (linux64) logging started Tue Jan 27 14:55:36 2015


Gurobi 5.6.3 (linux64) logging started Tue Jan 27 15:00:31 2015


Gurobi 5.6.3 (linux64) logging started Tue Jan 27 15:03:21 2015


Gurobi 5.6.3 (linux64) logging started Tue Jan 27 15:03:39 2015


Gurobi 5.6.3 (linux64) logging started Tue Jan 27 15:10:12 2015


Gurobi 5.6.3 (linux64) logging started Tue Jan 27 15:13:30 2015


Gurobi 5.6.3 (linux64) logging started Tue Jan 27 15:33:07 2015


Gurobi 5.6.3 (linux64) logging started Tue Jan 27 15:41:17 2015


Gurobi 5.6.3 (linux64) logging started Tue Jan 27 15:42:53 2015


Gurobi 5.6.3 (linux64) logging started Tue Jan 27 15:48:35 2015


Gurobi 5.6.3 (linux64) logging started Tue Jan 27 16:39:27 2015


Gurobi 5.6.3 (linux64) logging started Tue Jan 27 16:39:33 2015


Gurobi 5.6.3 (linux64) logging started Tue Jan 27 17:04:56 2015


Gurobi 5.6.3 (linux64) logging started Tue Jan 27 17:05:02 2015


Gurobi 5.6.3 (linux64) logging started Tue Jan 27 17:31:22 2015


Gurobi 5.6.3 (linux64) logging started Tue Jan 27 17:31:24 2015


Gurobi 5.6.3 (linux64) logging started Tue Jan 27 20:24:42 2015


Gurobi 5.6.3 (linux64) logging started Tue Jan 27 20:24:46 2015


Gurobi 5.6.3 (linux64) logging started Tue Jan 27 21:30:12 2015


Gurobi 5.6.3 (linux64) logging started Tue Jan 27 21:53:30 2015


Gurobi 5.6.3 (linux64) logging started Tue Jan 27 21:53:32 2015


Gurobi 5.6.3 (linux64) logging started Thu Jan 29 23:07:31 2015


Gurobi 5.6.3 (linux64) logging started Thu Jan 29 23:07:58 2015


Gurobi 5.6.3 (linux64) logging started Thu Jan 29 23:08:51 2015


Gurobi 5.6.3 (linux64) logging started Thu Jan 29 23:13:02 2015


Gurobi 5.6.3 (linux64) logging started Fri Jan 30 12:19:37 2015


Gurobi 5.6.3 (linux64) logging started Fri Jan 30 12:20:33 2015


Gurobi 5.6.3 (linux64) logging started Fri Jan 30 12:21:30 2015


Gurobi 5.6.3 (linux64) logging started Mon Feb  2 10:39:15 2015


Gurobi 5.6.3 (linux64) logging started Mon Feb  2 10:41:48 2015


Gurobi 5.6.3 (linux64) logging started Mon Feb  2 10:42:15 2015


Gurobi 5.6.3 (linux64) logging started Mon Feb  2 11:20:10 2015


Gurobi 5.6.3 (linux64) logging started Mon Feb  2 11:21:54 2015


Gurobi 5.6.3 (linux64) logging started Mon Feb  2 11:28:11 2015


Gurobi 5.6.3 (linux64) logging started Mon Feb  2 11:36:16 2015


Gurobi 5.6.3 (linux64) logging started Mon Feb  2 11:41:06 2015


Gurobi 5.6.3 (linux64) logging started Mon Feb  2 12:37:07 2015


Gurobi 5.6.3 (linux64) logging started Mon Feb  2 12:39:09 2015


Gurobi 5.6.3 (linux64) logging started Mon Feb  2 15:19:38 2015


Gurobi 5.6.3 (linux64) logging started Mon Feb  2 15:28:34 2015


Gurobi 5.6.3 (linux64) logging started Mon Feb  2 15:33:50 2015


Gurobi 5.6.3 (linux64) logging started Mon Feb  2 15:41:28 2015


Gurobi 5.6.3 (linux64) logging started Mon Feb  2 17:48:04 2015


Gurobi 5.6.3 (linux64) logging started Tue Feb  3 12:43:13 2015


Gurobi 5.6.3 (linux64) logging started Tue Feb  3 16:53:29 2015


Gurobi 5.6.3 (linux64) logging started Tue Feb  3 17:12:09 2015


Gurobi 5.6.3 (linux64) logging started Tue Feb  3 17:22:37 2015


Gurobi 5.6.3 (linux64) logging started Tue Feb  3 17:33:48 2015


Gurobi 5.6.3 (linux64) logging started Tue Feb  3 17:42:54 2015


Gurobi 5.6.3 (linux64) logging started Tue Feb  3 17:45:21 2015


Gurobi 5.6.3 (linux64) logging started Tue Feb  3 17:56:29 2015


Gurobi 5.6.3 (linux64) logging started Tue Feb  3 18:22:15 2015


Gurobi 5.6.3 (linux64) logging started Tue Feb  3 18:23:08 2015


Gurobi 5.6.3 (linux64) logging started Tue Feb  3 18:32:04 2015


Gurobi 5.6.3 (linux64) logging started Tue Feb  3 18:50:47 2015


Gurobi 5.6.3 (linux64) logging started Tue Feb  3 20:25:01 2015


Gurobi 5.6.3 (linux64) logging started Tue Feb  3 20:36:59 2015


Gurobi 5.6.3 (linux64) logging started Tue Feb  3 20:40:23 2015


Gurobi 5.6.3 (linux64) logging started Tue Feb  3 20:40:55 2015


Gurobi 5.6.3 (linux64) logging started Tue Feb  3 20:54:05 2015


Gurobi 5.6.3 (linux64) logging started Tue Feb  3 20:55:13 2015


Gurobi 5.6.3 (linux64) logging started Tue Feb  3 21:12:17 2015


Gurobi 5.6.3 (linux64) logging started Tue Feb  3 21:19:23 2015


Gurobi 5.6.3 (linux64) logging started Tue Feb  3 21:21:55 2015


Gurobi 5.6.3 (linux64) logging started Mon Apr 27 16:33:06 2015


Gurobi 5.6.3 (linux64) logging started Mon Apr 27 16:37:00 2015

